*SENSE:Minimize
NAME          MODEL
ROWS
 N  OBJ
 G  C0000000
 G  C0000001
 G  C0000002
 G  C0000003
 G  C0000004
 G  C0000005
 G  C0000006
 G  C0000007
 G  C0000008
 G  C0000009
 G  C0000010
 G  C0000011
 G  C0000012
COLUMNS
    X0000000  C0000000   1.425010000000e+03
    X0000000  OBJ        1.425010000000e+03
    X0000001  C0000001   1.200000000000e+02
    X0000001  OBJ        1.200000000000e+02
    X0000002  C0000002   1.134400000000e+02
    X0000002  OBJ        1.134400000000e+02
    X0000003  C0000003   1.050500000000e+02
    X0000003  OBJ        1.050500000000e+02
    X0000004  C0000004   1.193000000000e+02
    X0000004  OBJ        1.193000000000e+02
    X0000005  C0000005   9.329000000000e+01
    X0000005  OBJ        9.329000000000e+01
    X0000006  C0000006   1.396700000000e+02
    X0000006  OBJ        1.396700000000e+02
    X0000007  C0000007   8.736000000000e+01
    X0000007  OBJ        8.736000000000e+01
    X0000008  C0000008   1.058800000000e+02
    X0000008  OBJ        1.058800000000e+02
    X0000009  C0000009   1.527700000000e+02
    X0000009  OBJ        1.527700000000e+02
    X0000010  C0000010   1.730000000000e+02
    X0000010  OBJ        1.730000000000e+02
    X0000011  C0000011   2.549900000000e+02
    X0000011  OBJ        2.549900000000e+02
    X0000012  C0000012   1.115500000000e+02
    X0000012  OBJ        1.115500000000e+02
RHS
    RHS       C0000000   4.673527896528e-02
    RHS       C0000001   3.412396609180e-02
    RHS       C0000002   2.194106792241e-02
    RHS       C0000003   1.130304666183e-02
    RHS       C0000004   5.673657012586e-02
    RHS       C0000005   5.256179315382e-03
    RHS       C0000006   1.113071269377e-02
    RHS       C0000007   2.052639277064e-01
    RHS       C0000008   9.825431417707e-02
    RHS       C0000009   9.660519775729e-02
    RHS       C0000010   1.428593232547e-01
    RHS       C0000011   1.739905983981e-01
    RHS       C0000012   9.579981693007e-02
BOUNDS
ENDATA
